param set_len = 16;
param target := 101582;
param values := [1] 12692 [2] 22912 [3] 473 [4] 28146 [5] 14787 [6] 20409 [7] 24525 [8] 3615 [9] 12578 [10] 8219 [11] 3002 [12] 21336 [13] 24034 [14] 4492 [15] 30373 [16] 25553 ;
